param sigma
: 1   2 :=
1 0.00001 0.99999
2 0.10000 0.90000
3 0.20000 0.80000
4 0.30000 0.70000
5 0.40000 0.60000
6 0.50000 0.50000
7 0.90000 0.10000
8 0.80000 0.20000
9 0.70000 0.30000
10 0.60000 0.40000
11 0.99999 0.00001
;

set S:=
1 2 3 4 5 6 7 8 9 10 11 12 13 14 15 16 17 18 19 20 21 22 23 24 25 26 27 28 29 30 31 32 33 34 35 36 37 38 39 40 41 42 43 44 45 46 47 48 49 50 51 52 53 54 55 56 57 58 59 60 61 62 63 64 65 66 67 68 69 70 71 72 73 74 75 76 77 78 79 80 81 82 83 84 ;

set C:=
1 2 3 4 5 6 7 8 9 10 11 12 ;

set A:=
1 2 3 4 5 6 7 8 9 10 11 12 13 14 15 16 17 18 19 20 21 22 23 24 ;

set T:=
1_1_2 1_3_4 1_5_6 1_7_8 1_9_10
2_1_2 2_3_4 2_5_6 2_7_8 2_9_10
;

set R:=
1 2 3 4 5 ;

set Ac[1]:=
1 2 ;
set Ac[2]:=
3 4 ;
set Ac[3]:=
5 6 ;
set Ac[4]:=
7 8 ;
set Ac[5]:=
9 10 ;
set Ac[6]:=
11 12 ;
set Ac[7]:=
13 14 ;
set Ac[8]:=
15 16 ;
set Ac[9]:=
17 18 ;
set Ac[10]:=
19 20 ;
set Ac[11]:=
21 22 ;
set Ac[12]:=
23 24 ;

set Cs[1]:=
10 2 4 6 11 ;
set Cs[2]:=
10 7 12 2 6 8 ;
set Cs[3]:=
4 2 10 8 1 11 ;
set Cs[4]:=
10 3 11 4 2 ;
set Cs[5]:=
3 12 2 5 7 1 ;
set Cs[6]:=
9 11 6 7 1 ;
set Cs[7]:=
4 5 9 12 7 2 1 ;
set Cs[8]:=
4 10 9 2 5 6 1 ;
set Cs[9]:=
7 3 9 11 12 ;
set Cs[10]:=
11 6 10 12 5 7 ;
set Cs[11]:=
1 8 4 5 11 ;
set Cs[12]:=
7 11 5 4 2 8 10 ;
set Cs[13]:=
1 8 7 12 6 5 ;
set Cs[14]:=
8 5 9 10 2 ;
set Cs[15]:=
12 5 6 7 11 9 4 ;
set Cs[16]:=
7 4 2 8 6 ;
set Cs[17]:=
12 8 9 7 6 ;
set Cs[18]:=
10 5 6 1 12 3 ;
set Cs[19]:=
10 2 12 5 6 7 ;
set Cs[20]:=
4 2 7 11 12 1 ;
set Cs[21]:=
11 5 3 1 4 9 ;
set Cs[22]:=
7 8 1 5 12 ;
set Cs[23]:=
9 4 8 3 12 ;
set Cs[24]:=
4 5 1 12 2 6 ;
set Cs[25]:=
8 11 5 1 12 10 ;
set Cs[26]:=
4 5 2 3 7 9 ;
set Cs[27]:=
10 1 4 5 7 ;
set Cs[28]:=
4 10 6 8 1 ;
set Cs[29]:=
12 1 3 2 9 10 4 ;
set Cs[30]:=
1 7 2 5 3 ;
set Cs[31]:=
8 1 9 2 4 3 5 ;
set Cs[32]:=
1 4 12 3 11 5 7 ;
set Cs[33]:=
6 11 10 5 2 7 ;
set Cs[34]:=
12 10 11 8 2 3 7 ;
set Cs[35]:=
11 3 8 1 7 5 ;
set Cs[36]:=
4 11 8 1 10 9 ;
set Cs[37]:=
3 6 12 7 2 8 ;
set Cs[38]:=
12 11 6 7 5 1 ;
set Cs[39]:=
9 5 12 11 7 2 3 ;
set Cs[40]:=
3 5 12 7 6 2 1 ;
set Cs[41]:=
7 2 4 3 1 ;
set Cs[42]:=
7 6 9 1 4 ;
set Cs[43]:=
3 2 1 11 5 12 10 ;
set Cs[44]:=
3 1 5 12 7 11 ;
set Cs[45]:=
12 7 1 8 2 ;
set Cs[46]:=
7 4 12 1 8 10 ;
set Cs[47]:=
8 4 9 6 10 ;
set Cs[48]:=
10 4 1 5 7 11 8 ;
set Cs[49]:=
9 10 2 6 11 ;
set Cs[50]:=
4 11 10 12 7 3 2 ;
set Cs[51]:=
3 2 9 8 6 5 ;
set Cs[52]:=
11 9 10 5 6 7 ;
set Cs[53]:=
2 11 3 8 5 6 9 ;
set Cs[54]:=
1 2 9 5 10 11 8 ;
set Cs[55]:=
2 9 4 5 7 11 ;
set Cs[56]:=
8 6 2 11 3 ;
set Cs[57]:=
6 8 2 9 4 5 ;
set Cs[58]:=
3 12 7 9 5 6 ;
set Cs[59]:=
2 6 8 7 10 1 12 ;
set Cs[60]:=
8 10 4 1 5 11 2 ;
set Cs[61]:=
4 12 10 8 7 1 5 ;
set Cs[62]:=
6 3 10 4 12 ;
set Cs[63]:=
12 10 7 4 3 ;
set Cs[64]:=
7 5 3 4 9 2 12 ;
set Cs[65]:=
12 2 11 10 7 ;
set Cs[66]:=
3 5 6 10 7 ;
set Cs[67]:=
6 10 11 2 9 ;
set Cs[68]:=
2 8 1 6 4 12 ;
set Cs[69]:=
11 2 9 5 12 6 ;
set Cs[70]:=
8 2 11 7 6 ;
set Cs[71]:=
9 12 10 1 2 5 3 ;
set Cs[72]:=
4 3 12 1 11 10 2 ;
set Cs[73]:=
2 3 10 9 1 8 12 ;
set Cs[74]:=
4 10 5 3 8 ;
set Cs[75]:=
6 7 5 10 1 9 ;
set Cs[76]:=
7 6 5 2 3 ;
set Cs[77]:=
6 1 7 10 11 12 5 ;
set Cs[78]:=
9 4 8 3 11 ;
set Cs[79]:=
11 4 12 8 5 ;
set Cs[80]:=
6 3 8 10 4 7 2 ;
set Cs[81]:=
6 9 5 8 7 4 ;
set Cs[82]:=
7 1 3 4 8 2 ;
set Cs[83]:=
4 2 9 11 7 3 ;
set Cs[84]:=
9 6 7 4 2 ;

set Ra[1]:=
1 2 3 4 5 ;
set Ra[2]:=
1 2 3 4 5 ;
set Ra[3]:=
1 2 3 4 5 ;
set Ra[4]:=
1 2 3 4 5 ;
set Ra[5]:=
1 2 3 4 5 ;
set Ra[6]:=
1 2 3 4 5 ;
set Ra[7]:=
1 2 3 4 5 ;
set Ra[8]:=
1 2 3 4 5 ;
set Ra[9]:=
1 2 3 4 5 ;
set Ra[10]:=
1 2 3 4 5 ;
set Ra[11]:=
1 2 3 4 5 ;
set Ra[12]:=
1 2 3 4 5 ;
set Ra[13]:=
1 2 3 4 5 ;
set Ra[14]:=
1 2 3 4 5 ;
set Ra[15]:=
1 2 3 4 5 ;
set Ra[16]:=
1 2 3 4 5 ;
set Ra[17]:=
1 2 3 4 5 ;
set Ra[18]:=
1 2 3 4 5 ;
set Ra[19]:=
1 2 3 4 5 ;
set Ra[20]:=
1 2 3 4 5 ;
set Ra[21]:=
1 2 3 4 5 ;
set Ra[22]:=
1 2 3 4 5 ;
set Ra[23]:=
1 2 3 4 5 ;
set Ra[24]:=
1 2 3 4 5 ;

set Ts[1]:=
2_3_4 1_1_2 2_7_8 2_5_6 ;
set Ts[2]:=
1_9_10 2_1_2 2_3_4 2_7_8 ;
set Ts[3]:=
2_1_2 1_7_8 ;
set Ts[4]:=
2_5_6 2_3_4 ;
set Ts[5]:=
1_9_10 1_1_2 2_7_8 ;
set Ts[6]:=
2_5_6 1_3_4 2_3_4 2_9_10 ;
set Ts[7]:=
2_7_8 1_3_4 2_3_4 1_9_10 ;
set Ts[8]:=
1_1_2 1_9_10 1_3_4 ;
set Ts[9]:=
1_7_8 2_3_4 2_7_8 ;
set Ts[10]:=
2_1_2 1_1_2 2_5_6 ;
set Ts[11]:=
1_7_8 2_3_4 ;
set Ts[12]:=
2_5_6 2_7_8 ;
set Ts[13]:=
1_5_6 1_9_10 1_7_8 ;
set Ts[14]:=
1_7_8 2_1_2 1_9_10 2_5_6 ;
set Ts[15]:=
1_3_4 2_5_6 1_7_8 2_7_8 ;
set Ts[16]:=
2_9_10 1_3_4 ;
set Ts[17]:=
1_3_4 2_7_8 1_7_8 2_3_4 ;
set Ts[18]:=
2_3_4 2_7_8 ;
set Ts[19]:=
2_7_8 2_3_4 2_5_6 ;
set Ts[20]:=
1_3_4 2_3_4 2_7_8 ;
set Ts[21]:=
2_5_6 1_3_4 ;
set Ts[22]:=
1_7_8 2_7_8 ;
set Ts[23]:=
1_1_2 2_5_6 2_7_8 2_3_4 ;
set Ts[24]:=
2_5_6 2_9_10 1_9_10 2_7_8 ;
set Ts[25]:=
1_3_4 1_1_2 2_9_10 ;
set Ts[26]:=
2_9_10 1_1_2 2_3_4 1_9_10 ;
set Ts[27]:=
1_5_6 2_3_4 ;
set Ts[28]:=
2_3_4 1_3_4 ;
set Ts[29]:=
1_7_8 1_9_10 ;
set Ts[30]:=
1_9_10 1_5_6 2_7_8 2_1_2 ;
set Ts[31]:=
2_5_6 2_9_10 ;
set Ts[32]:=
1_3_4 1_7_8 2_3_4 ;
set Ts[33]:=
1_7_8 2_5_6 1_5_6 ;
set Ts[34]:=
2_3_4 2_1_2 2_7_8 ;
set Ts[35]:=
2_9_10 1_3_4 ;
set Ts[36]:=
1_7_8 2_1_2 ;
set Ts[37]:=
2_5_6 2_9_10 2_3_4 ;
set Ts[38]:=
1_5_6 2_9_10 2_3_4 ;
set Ts[39]:=
2_9_10 1_5_6 2_7_8 2_3_4 ;
set Ts[40]:=
2_9_10 1_9_10 2_3_4 2_5_6 ;
set Ts[41]:=
1_3_4 1_1_2 ;
set Ts[42]:=
2_1_2 1_7_8 ;
set Ts[43]:=
2_5_6 2_3_4 2_1_2 ;
set Ts[44]:=
1_3_4 2_1_2 1_7_8 2_9_10 ;
set Ts[45]:=
2_9_10 2_7_8 1_1_2 1_9_10 ;
set Ts[46]:=
1_5_6 1_7_8 ;
set Ts[47]:=
2_3_4 2_7_8 1_9_10 1_7_8 ;
set Ts[48]:=
1_5_6 1_9_10 ;
set Ts[49]:=
1_5_6 2_7_8 ;
set Ts[50]:=
2_1_2 2_5_6 2_3_4 ;
set Ts[51]:=
2_3_4 2_7_8 ;
set Ts[52]:=
2_9_10 1_3_4 1_5_6 2_5_6 ;
set Ts[53]:=
2_9_10 1_5_6 2_5_6 ;
set Ts[54]:=
2_7_8 2_5_6 1_1_2 ;
set Ts[55]:=
1_5_6 1_7_8 2_9_10 2_1_2 ;
set Ts[56]:=
2_9_10 2_5_6 ;
set Ts[57]:=
1_1_2 1_9_10 1_7_8 ;
set Ts[58]:=
1_5_6 2_9_10 2_3_4 ;
set Ts[59]:=
2_9_10 1_7_8 ;
set Ts[60]:=
1_9_10 2_9_10 2_7_8 ;
set Ts[61]:=
1_7_8 2_7_8 2_9_10 ;
set Ts[62]:=
1_3_4 1_5_6 1_9_10 ;
set Ts[63]:=
1_9_10 2_1_2 ;
set Ts[64]:=
1_7_8 1_1_2 ;
set Ts[65]:=
2_1_2 1_1_2 ;
set Ts[66]:=
2_5_6 2_1_2 2_9_10 ;
set Ts[67]:=
2_3_4 2_7_8 1_7_8 2_9_10 ;
set Ts[68]:=
1_3_4 1_9_10 ;
set Ts[69]:=
2_7_8 1_9_10 1_1_2 ;
set Ts[70]:=
1_1_2 1_9_10 2_1_2 1_3_4 ;
set Ts[71]:=
1_9_10 1_3_4 ;
set Ts[72]:=
2_3_4 1_9_10 2_7_8 ;
set Ts[73]:=
2_7_8 2_1_2 2_5_6 ;
set Ts[74]:=
2_3_4 2_5_6 ;
set Ts[75]:=
2_5_6 1_5_6 2_3_4 ;
set Ts[76]:=
2_9_10 1_1_2 ;
set Ts[77]:=
2_9_10 1_9_10 ;
set Ts[78]:=
2_3_4 1_5_6 2_1_2 ;
set Ts[79]:=
2_1_2 2_5_6 2_3_4 ;
set Ts[80]:=
1_1_2 1_7_8 1_5_6 1_9_10 ;
set Ts[81]:=
2_7_8 2_5_6 1_5_6 ;
set Ts[82]:=
2_1_2 2_3_4 2_5_6 ;
set Ts[83]:=
1_7_8 2_7_8 1_3_4 2_5_6 ;
set Ts[84]:=
1_9_10 1_5_6 ;

param rho:=
1 84
2 84
3 84
4 84
5 84
;

param sigma_class:=
1 84
2 84
3 84
4 84
5 84
;

param kmin:=
1 2
2 3
3 3
4 2
5 3
6 2
7 3
8 3
9 2
10 3
11 2
12 3
13 3
14 2
15 3
16 2
17 2
18 3
19 3
20 3
21 3
22 2
23 2
24 3
25 3
26 3
27 2
28 2
29 3
30 2
31 3
32 3
33 3
34 3
35 3
36 3
37 3
38 3
39 3
40 3
41 2
42 2
43 3
44 3
45 2
46 3
47 2
48 3
49 2
50 3
51 3
52 3
53 3
54 3
55 3
56 2
57 3
58 3
59 3
60 3
61 3
62 2
63 2
64 3
65 2
66 2
67 2
68 3
69 3
70 2
71 3
72 3
73 3
74 2
75 3
76 2
77 3
78 2
79 2
80 3
81 3
82 3
83 3
84 2
;

param kmax:=
1 5
2 6
3 6
4 5
5 6
6 5
7 7
8 7
9 5
10 6
11 5
12 7
13 6
14 5
15 7
16 5
17 5
18 6
19 6
20 6
21 6
22 5
23 5
24 6
25 6
26 6
27 5
28 5
29 7
30 5
31 7
32 7
33 6
34 7
35 6
36 6
37 6
38 6
39 7
40 7
41 5
42 5
43 7
44 6
45 5
46 6
47 5
48 7
49 5
50 7
51 6
52 6
53 7
54 7
55 6
56 5
57 6
58 6
59 7
60 7
61 7
62 5
63 5
64 7
65 5
66 5
67 5
68 6
69 6
70 5
71 7
72 7
73 7
74 5
75 6
76 5
77 7
78 5
79 5
80 7
81 6
82 6
83 6
84 5
;

